1
1000
249
499 1
496 1
496 1
495 1
492 1
489 1
488 1
487 1
484 1
480 1
479 1
477 1
476 1
476 1
476 1
475 1
475 1
473 1
469 1
467 1
465 1
463 1
463 1
459 1
458 1
456 1
451 1
451 1
449 1
447 1
446 1
444 1
438 1
438 1
434 1
433 1
432 1
431 1
431 1
422 1
420 1
418 1
417 1
416 1
416 1
415 1
415 1
414 1
413 1
410 1
408 1
406 1
405 1
405 1
401 1
397 1
392 1
391 1
390 1
390 1
389 1
386 1
385 1
384 1
384 1
383 1
383 1
382 1
382 1
382 1
380 1
379 1
378 1
377 1
376 1
374 1
374 1
374 1
369 1
368 1
363 1
362 1
362 1
360 1
360 1
357 1
356 1
356 1
356 1
356 1
353 1
349 1
348 1
347 1
347 1
347 1
341 1
338 1
336 1
335 1
335 1
334 1
334 1
334 1
330 1
329 1
326 1
326 1
325 1
324 1
324 1
323 1
323 1
323 1
321 1
319 1
316 1
315 1
313 1
313 1
313 1
312 1
312 1
310 1
310 1
309 1
309 1
307 1
304 1
304 1
303 1
302 1
301 1
300 1
300 1
299 1
299 1
298 1
297 1
296 1
295 1
295 1
294 1
294 1
294 1
292 1
291 1
291 1
291 1
290 1
289 1
289 1
287 1
286 1
285 1
283 1
283 1
281 1
281 1
280 1
279 1
278 1
278 1
278 1
277 1
277 1
276 1
276 1
276 1
275 1
275 1
274 1
274 1
274 1
273 1
273 1
273 1
272 1
271 1
271 1
271 1
270 1
270 1
270 1
269 1
269 1
269 1
269 1
268 1
268 1
268 1
268 1
267 1
267 1
266 1
265 1
265 1
264 1
263 1
262 1
262 1
262 1
262 1
261 1
261 1
261 1
260 1
259 1
259 1
259 1
259 1
258 1
257 1
257 1
257 1
257 1
257 1
256 1
256 1
256 1
256 1
256 1
255 1
255 1
255 1
255 1
255 1
254 1
254 1
254 1
254 1
253 1
252 1
252 1
252 1
252 1
251 1
251 1
250 1
250 1
250 1
250 1
250 1
250 1
250 1
250 1
250 1
250 1
250 1
